************************************************************************
file with basedata            : mm35_.bas
initial value random generator: 14098
************************************************************************
projects                      :  1
jobs (incl. supersource/sink ):  12
horizon                       :  86
RESOURCES
  - renewable                 :  2   R
  - nonrenewable              :  2   N
  - doubly constrained        :  0   D
************************************************************************
PROJECT INFORMATION:
pronr.  #jobs rel.date duedate tardcost  MPM-Time
    1     10      0       15        5       15
************************************************************************
PRECEDENCE RELATIONS:
jobnr.    #modes  #successors   successors
   0        1          3           1   2   3
   1        3          2           6   7
   2        3          3           4   5   8
   3        3          1           5
   4        3          1           7
   5        3          1           9
   6        3          3           8   9  10
   7        3          1          10
   8        3          1          11
   9        3          1          11
  10        3          1          11
  11        1          0        
************************************************************************
REQUESTS/DURATIONS:
jobnr. mode duration  R 1  R 2  R 3  R 4  E(W 1)  E(W 2)  E(W 3)
------------------------------------------------------------------------
  0      1     0       0    0    0    0     0       0       0
  1      1     4       4    8    0    4    48       0      16
  2      1     4       4    4   10    0    32      40       0
  3      1     6       8   10    4    0    108      24       0
  4      1     2       5    7    0    6    24       0      12
  5      1     3       8    8    0    6    48       0      18
  6      1     4       9    8    0    8    68       0      32
  7      1     1       9   10    0   10    19       0      10
  8      1     5       7    8    0    3    75       0      15
  9      1     6       8    9    7    0    102      42       0
 10      1     2       6    3    0    8    18       0      16
 11      1     0       0    0    0    0     0       0       0
************************************************************************
RESOURCEAVAILABILITIES:
  R 1  R 2  R 3
   25   43   47
************************************************************************
RESOURCE LIMITS:
jobnr.  l(R 1)  u(R 1)  l(R 2)  u(R 2)  l(R 3)  u(R 3)
------------------------------------------------------------------------
  0        0       0       0       0       0       0
  1        6      12       0       0       2       4
  2        4       8       5      10       0       0
  3        9      18       2       4       0       0
  4        7      12       0       0       3       6
  5        8      16       0       0       3       6
  6        9      17       0       0       4       8
  7       10      19       0       0       5      10
  8        8      15       0       0       2       3
  9        9      17       4       7       0       0
 10        5       9       0       0       4       8
 11        0       0       0       0       0       0
************************************************************************
SCENARIOS:
------------------------------------------------------------------------
RESOURCE k = 1
s = 1: (0, 67, 28, 84, 24, 33, 56, 17, 43, 71, 18, 0)
s = 2: (0, 51, 26, 166, 29, 53, 41, 12, 80, 150, 20, 0)
s = 3: (0, 53, 27, 154, 25, 40, 58, 22, 67, 108, 22, 0)
s = 4: (0, 30, 49, 81, 16, 59, 74, 27, 78, 124, 15, 0)
s = 5: (0, 45, 34, 163, 15, 50, 60, 17, 74, 66, 22, 0)
s = 6: (0, 62, 24, 178, 23, 44, 57, 22, 56, 121, 18, 0)
s = 7: (0, 80, 32, 98, 40, 45, 59, 14, 50, 90, 25, 0)
s = 8: (0, 45, 38, 142, 21, 53, 40, 17, 49, 147, 21, 0)
s = 9: (0, 62, 38, 131, 17, 39, 79, 28, 98, 82, 27, 0)
s = 10: (0, 54, 22, 147, 32, 45, 44, 15, 114, 66, 19, 0)
s = 11: (0, 47, 38, 83, 34, 78, 50, 21, 70, 76, 18, 0)
s = 12: (0, 57, 42, 81, 31, 40, 61, 11, 60, 137, 13, 0)
s = 13: (0, 27, 33, 137, 44, 59, 62, 25, 103, 85, 19, 0)
s = 14: (0, 58, 51, 82, 30, 50, 59, 18, 77, 133, 19, 0)
s = 15: (0, 45, 41, 109, 17, 30, 82, 19, 73, 102, 17, 0)
s = 16: (0, 39, 30, 83, 36, 54, 55, 13, 56, 107, 27, 0)
s = 17: (0, 37, 25, 107, 23, 55, 68, 26, 54, 158, 20, 0)
s = 18: (0, 28, 26, 92, 16, 58, 70, 13, 113, 106, 13, 0)
s = 19: (0, 46, 34, 110, 15, 61, 50, 23, 46, 91, 17, 0)
s = 20: (0, 65, 34, 156, 22, 29, 48, 11, 89, 58, 18, 0)
s = 21: (0, 29, 46, 118, 24, 65, 72, 21, 125, 106, 19, 0)
s = 22: (0, 32, 26, 100, 25, 37, 53, 13, 52, 77, 23, 0)
s = 23: (0, 40, 40, 103, 31, 48, 76, 20, 53, 99, 14, 0)
s = 24: (0, 35, 19, 112, 23, 55, 57, 27, 95, 83, 11, 0)
s = 25: (0, 52, 37, 111, 27, 52, 116, 23, 71, 96, 14, 0)
s = 26: (0, 69, 30, 122, 16, 75, 49, 16, 60, 114, 21, 0)
s = 27: (0, 62, 29, 116, 13, 73, 54, 14, 59, 60, 11, 0)
s = 28: (0, 31, 36, 107, 29, 33, 68, 25, 100, 94, 18, 0)
s = 29: (0, 36, 26, 107, 21, 42, 75, 32, 78, 90, 15, 0)
s = 30: (0, 48, 57, 118, 28, 42, 72, 18, 56, 104, 23, 0)
s = 31: (0, 43, 31, 163, 21, 54, 49, 29, 77, 130, 18, 0)
s = 32: (0, 29, 21, 119, 13, 51, 93, 18, 89, 73, 16, 0)
s = 33: (0, 45, 22, 132, 26, 48, 59, 25, 99, 180, 25, 0)
s = 34: (0, 39, 39, 124, 23, 66, 68, 11, 113, 85, 25, 0)
s = 35: (0, 61, 49, 81, 16, 29, 67, 17, 102, 133, 24, 0)
s = 36: (0, 31, 27, 117, 14, 62, 87, 12, 48, 91, 25, 0)
s = 37: (0, 59, 39, 132, 33, 38, 64, 24, 89, 88, 28, 0)
s = 38: (0, 31, 25, 148, 29, 79, 62, 17, 88, 125, 19, 0)
s = 39: (0, 35, 23, 82, 27, 31, 58, 30, 55, 115, 20, 0)
s = 40: (0, 41, 31, 94, 22, 39, 99, 14, 57, 81, 15, 0)
s = 41: (0, 42, 35, 98, 18, 62, 71, 13, 53, 109, 13, 0)
s = 42: (0, 46, 53, 56, 29, 43, 101, 29, 70, 125, 15, 0)
s = 43: (0, 55, 34, 80, 15, 37, 43, 13, 86, 74, 26, 0)
s = 44: (0, 31, 40, 78, 27, 37, 54, 18, 75, 125, 18, 0)
s = 45: (0, 38, 31, 134, 26, 53, 49, 17, 87, 113, 13, 0)
s = 46: (0, 55, 38, 122, 34, 82, 91, 23, 76, 103, 24, 0)
s = 47: (0, 44, 22, 170, 29, 39, 82, 22, 81, 114, 16, 0)
s = 48: (0, 45, 30, 112, 18, 74, 65, 21, 52, 66, 17, 0)
s = 49: (0, 56, 27, 88, 27, 39, 55, 29, 49, 160, 29, 0)
s = 50: (0, 74, 20, 102, 24, 55, 77, 23, 92, 126, 17, 0)
s = 51: (0, 38, 43, 161, 36, 56, 52, 16, 50, 173, 14, 0)
s = 52: (0, 52, 19, 90, 18, 50, 80, 30, 67, 88, 15, 0)
s = 53: (0, 31, 33, 101, 27, 59, 57, 20, 53, 136, 12, 0)
s = 54: (0, 58, 29, 109, 41, 41, 43, 32, 102, 72, 17, 0)
s = 55: (0, 29, 43, 103, 19, 40, 60, 18, 71, 66, 16, 0)
s = 56: (0, 33, 39, 131, 17, 58, 60, 20, 85, 66, 23, 0)
s = 57: (0, 57, 33, 74, 24, 43, 82, 29, 79, 96, 16, 0)
s = 58: (0, 56, 54, 106, 19, 53, 68, 17, 64, 94, 14, 0)
s = 59: (0, 67, 28, 85, 35, 33, 43, 22, 115, 65, 12, 0)
s = 60: (0, 30, 25, 61, 17, 70, 43, 19, 57, 176, 16, 0)
s = 61: (0, 49, 40, 108, 18, 28, 78, 18, 75, 64, 20, 0)
s = 62: (0, 35, 32, 72, 32, 61, 73, 21, 42, 83, 20, 0)
s = 63: (0, 37, 42, 138, 21, 59, 101, 30, 102, 135, 17, 0)
s = 64: (0, 44, 28, 90, 14, 70, 53, 23, 105, 115, 19, 0)
s = 65: (0, 33, 31, 105, 22, 68, 83, 12, 48, 106, 11, 0)
s = 66: (0, 74, 38, 85, 22, 66, 71, 19, 71, 90, 25, 0)
s = 67: (0, 53, 46, 91, 26, 34, 89, 15, 59, 102, 13, 0)
s = 68: (0, 60, 32, 81, 28, 35, 80, 12, 94, 124, 21, 0)
s = 69: (0, 45, 37, 104, 25, 60, 61, 12, 82, 89, 23, 0)
s = 70: (0, 46, 22, 99, 18, 43, 91, 17, 82, 118, 17, 0)
s = 71: (0, 51, 28, 88, 20, 81, 48, 25, 66, 93, 15, 0)
s = 72: (0, 32, 31, 169, 26, 40, 61, 18, 69, 79, 17, 0)
s = 73: (0, 34, 31, 151, 16, 44, 63, 19, 57, 101, 14, 0)
s = 74: (0, 49, 23, 73, 36, 42, 64, 11, 60, 110, 12, 0)
s = 75: (0, 53, 31, 67, 21, 43, 56, 19, 59, 91, 16, 0)
s = 76: (0, 31, 32, 75, 34, 45, 80, 20, 70, 87, 22, 0)
s = 77: (0, 56, 27, 129, 23, 45, 86, 16, 46, 77, 27, 0)
s = 78: (0, 33, 30, 69, 35, 78, 73, 24, 73, 123, 12, 0)
s = 79: (0, 32, 28, 139, 39, 49, 48, 32, 80, 165, 20, 0)
s = 80: (0, 44, 32, 111, 32, 61, 78, 12, 92, 115, 21, 0)
s = 81: (0, 49, 40, 77, 20, 42, 74, 23, 88, 94, 24, 0)
s = 82: (0, 75, 42, 81, 17, 42, 49, 14, 120, 73, 14, 0)
s = 83: (0, 33, 43, 109, 17, 40, 53, 18, 88, 62, 15, 0)
s = 84: (0, 41, 36, 102, 22, 76, 77, 16, 59, 63, 19, 0)
s = 85: (0, 54, 32, 144, 27, 45, 50, 25, 88, 98, 11, 0)
s = 86: (0, 37, 22, 124, 29, 40, 67, 23, 96, 65, 26, 0)
s = 87: (0, 46, 34, 124, 23, 36, 75, 26, 45, 89, 12, 0)
s = 88: (0, 36, 26, 91, 18, 46, 60, 24, 71, 71, 24, 0)
s = 89: (0, 48, 39, 95, 25, 48, 59, 24, 113, 86, 12, 0)
s = 90: (0, 52, 28, 108, 41, 51, 63, 17, 46, 114, 20, 0)
s = 91: (0, 25, 45, 63, 29, 35, 71, 22, 58, 111, 22, 0)
s = 92: (0, 45, 34, 130, 14, 32, 98, 16, 77, 103, 18, 0)
s = 93: (0, 36, 50, 166, 29, 33, 50, 19, 63, 89, 14, 0)
s = 94: (0, 64, 30, 122, 20, 31, 58, 24, 93, 81, 18, 0)
s = 95: (0, 64, 39, 97, 18, 58, 70, 20, 59, 107, 17, 0)
s = 96: (0, 52, 24, 173, 27, 36, 110, 21, 98, 128, 22, 0)
s = 97: (0, 61, 52, 170, 23, 35, 109, 31, 85, 63, 17, 0)
s = 98: (0, 79, 41, 70, 15, 70, 85, 23, 87, 137, 12, 0)
s = 99: (0, 45, 38, 104, 20, 78, 39, 15, 50, 107, 17, 0)
s = 100: (0, 53, 23, 84, 25, 38, 75, 18, 79, 77, 29, 0)
s = 101: (0, 29, 40, 91, 22, 29, 39, 22, 103, 128, 15, 0)
s = 102: (0, 63, 31, 152, 21, 54, 67, 13, 101, 78, 24, 0)
s = 103: (0, 52, 24, 144, 31, 48, 48, 22, 78, 79, 24, 0)
s = 104: (0, 59, 31, 89, 21, 51, 84, 16, 100, 79, 15, 0)
s = 105: (0, 65, 29, 80, 42, 37, 74, 25, 66, 95, 19, 0)
s = 106: (0, 53, 21, 123, 21, 49, 61, 27, 67, 118, 16, 0)
s = 107: (0, 35, 30, 88, 19, 35, 41, 12, 41, 100, 28, 0)
s = 108: (0, 45, 25, 64, 22, 51, 87, 28, 117, 88, 13, 0)
s = 109: (0, 66, 34, 130, 25, 59, 57, 31, 43, 203, 26, 0)
s = 110: (0, 59, 28, 112, 37, 49, 41, 26, 46, 121, 20, 0)
s = 111: (0, 29, 36, 60, 18, 34, 52, 20, 101, 82, 13, 0)
s = 112: (0, 44, 23, 158, 30, 74, 40, 32, 75, 127, 18, 0)
s = 113: (0, 43, 30, 60, 27, 64, 60, 14, 77, 105, 22, 0)
s = 114: (0, 63, 27, 103, 16, 41, 82, 13, 47, 54, 20, 0)
s = 115: (0, 42, 31, 117, 16, 47, 66, 15, 91, 78, 19, 0)
s = 116: (0, 43, 36, 84, 17, 35, 51, 14, 51, 137, 21, 0)
s = 117: (0, 43, 27, 122, 19, 32, 40, 24, 73, 133, 17, 0)
s = 118: (0, 37, 32, 80, 21, 61, 71, 17, 45, 111, 13, 0)
s = 119: (0, 42, 20, 78, 26, 50, 102, 23, 49, 89, 26, 0)
s = 120: (0, 49, 29, 72, 24, 68, 90, 32, 69, 123, 18, 0)
s = 121: (0, 61, 29, 97, 15, 72, 97, 16, 94, 99, 18, 0)
s = 122: (0, 71, 34, 115, 19, 66, 80, 28, 61, 97, 24, 0)
s = 123: (0, 32, 32, 71, 23, 54, 97, 20, 70, 111, 22, 0)
s = 124: (0, 55, 30, 131, 32, 64, 78, 21, 54, 86, 14, 0)
s = 125: (0, 42, 21, 97, 20, 56, 40, 18, 115, 149, 13, 0)
s = 126: (0, 26, 28, 102, 20, 41, 91, 16, 51, 107, 13, 0)
s = 127: (0, 42, 29, 102, 21, 40, 48, 23, 59, 176, 27, 0)
s = 128: (0, 46, 45, 147, 28, 42, 56, 20, 59, 109, 14, 0)
s = 129: (0, 50, 29, 120, 27, 62, 102, 15, 84, 79, 14, 0)
s = 130: (0, 62, 32, 101, 21, 72, 116, 22, 63, 84, 17, 0)
s = 131: (0, 29, 37, 134, 28, 45, 63, 15, 64, 99, 14, 0)
s = 132: (0, 50, 38, 97, 23, 41, 68, 15, 65, 170, 20, 0)
s = 133: (0, 40, 20, 87, 18, 72, 82, 21, 57, 114, 12, 0)
s = 134: (0, 33, 36, 193, 13, 36, 120, 16, 121, 127, 17, 0)
s = 135: (0, 44, 30, 84, 18, 50, 50, 15, 63, 119, 18, 0)
s = 136: (0, 36, 17, 137, 33, 35, 63, 32, 48, 62, 18, 0)
s = 137: (0, 58, 34, 113, 16, 29, 60, 20, 91, 76, 15, 0)
s = 138: (0, 50, 25, 74, 32, 41, 81, 24, 54, 70, 13, 0)
s = 139: (0, 43, 34, 90, 21, 54, 68, 23, 113, 59, 13, 0)
s = 140: (0, 48, 36, 87, 25, 46, 70, 20, 103, 127, 20, 0)
s = 141: (0, 56, 44, 126, 19, 43, 74, 28, 42, 65, 25, 0)
s = 142: (0, 59, 28, 118, 26, 28, 78, 14, 101, 60, 19, 0)
s = 143: (0, 44, 32, 164, 24, 38, 96, 32, 86, 107, 30, 0)
s = 144: (0, 48, 24, 81, 27, 35, 49, 25, 137, 66, 17, 0)
s = 145: (0, 49, 44, 147, 15, 52, 78, 16, 92, 80, 17, 0)
s = 146: (0, 38, 38, 123, 14, 55, 65, 22, 60, 102, 13, 0)
s = 147: (0, 54, 26, 92, 18, 48, 63, 15, 40, 78, 23, 0)
s = 148: (0, 33, 30, 109, 31, 46, 49, 19, 54, 82, 13, 0)
s = 149: (0, 48, 28, 73, 16, 44, 45, 15, 68, 119, 23, 0)
s = 150: (0, 28, 41, 76, 23, 52, 61, 28, 50, 113, 16, 0)
s = 151: (0, 42, 24, 65, 35, 48, 55, 19, 65, 92, 27, 0)
s = 152: (0, 55, 40, 139, 38, 33, 123, 14, 91, 105, 20, 0)
s = 153: (0, 58, 24, 89, 25, 37, 63, 18, 67, 149, 19, 0)
s = 154: (0, 46, 30, 119, 21, 52, 81, 26, 62, 124, 25, 0)
s = 155: (0, 38, 53, 168, 29, 71, 46, 25, 76, 125, 21, 0)
s = 156: (0, 39, 42, 76, 30, 64, 41, 25, 72, 158, 21, 0)
s = 157: (0, 61, 52, 69, 15, 41, 46, 19, 57, 149, 11, 0)
s = 158: (0, 62, 29, 159, 36, 48, 53, 14, 104, 84, 20, 0)
s = 159: (0, 47, 44, 88, 25, 43, 59, 18, 105, 122, 17, 0)
s = 160: (0, 46, 26, 84, 37, 62, 59, 22, 88, 77, 18, 0)
s = 161: (0, 51, 26, 119, 30, 30, 53, 32, 56, 137, 19, 0)
s = 162: (0, 70, 22, 105, 24, 37, 48, 12, 92, 132, 14, 0)
s = 163: (0, 36, 23, 111, 15, 63, 97, 18, 49, 163, 29, 0)
s = 164: (0, 44, 23, 75, 25, 67, 56, 24, 60, 117, 20, 0)
s = 165: (0, 70, 32, 117, 28, 49, 105, 17, 102, 100, 26, 0)
s = 166: (0, 44, 37, 158, 21, 32, 100, 20, 65, 98, 22, 0)
s = 167: (0, 63, 20, 97, 21, 64, 67, 23, 121, 134, 13, 0)
s = 168: (0, 55, 33, 74, 16, 48, 90, 14, 71, 109, 20, 0)
s = 169: (0, 29, 25, 188, 24, 61, 67, 12, 107, 139, 14, 0)
s = 170: (0, 35, 39, 106, 31, 50, 60, 26, 51, 88, 21, 0)
s = 171: (0, 38, 20, 92, 15, 29, 80, 22, 83, 83, 19, 0)
s = 172: (0, 70, 35, 95, 22, 69, 83, 12, 75, 77, 17, 0)
s = 173: (0, 53, 34, 103, 19, 40, 90, 14, 98, 129, 27, 0)
s = 174: (0, 39, 50, 93, 26, 70, 79, 15, 52, 137, 28, 0)
s = 175: (0, 43, 43, 111, 29, 35, 38, 32, 62, 68, 19, 0)
s = 176: (0, 37, 24, 140, 29, 36, 68, 16, 75, 56, 26, 0)
s = 177: (0, 54, 30, 72, 18, 58, 47, 22, 46, 86, 12, 0)
s = 178: (0, 36, 28, 101, 27, 42, 53, 18, 52, 74, 31, 0)
s = 179: (0, 46, 36, 126, 33, 58, 128, 22, 94, 95, 15, 0)
s = 180: (0, 58, 41, 122, 26, 44, 50, 12, 97, 80, 13, 0)
s = 181: (0, 45, 18, 70, 24, 71, 80, 21, 58, 119, 21, 0)
s = 182: (0, 48, 18, 148, 17, 43, 82, 31, 80, 102, 16, 0)
s = 183: (0, 64, 30, 93, 16, 38, 109, 18, 62, 110, 21, 0)
s = 184: (0, 62, 21, 122, 25, 71, 57, 20, 73, 72, 12, 0)
s = 185: (0, 45, 18, 70, 39, 63, 55, 13, 72, 111, 15, 0)
s = 186: (0, 28, 23, 117, 26, 67, 37, 18, 86, 63, 24, 0)
s = 187: (0, 63, 26, 82, 26, 72, 59, 17, 73, 82, 15, 0)
s = 188: (0, 35, 27, 183, 30, 65, 77, 17, 78, 93, 21, 0)
s = 189: (0, 70, 24, 170, 23, 67, 61, 16, 72, 116, 29, 0)
s = 190: (0, 76, 20, 164, 24, 62, 100, 15, 72, 89, 16, 0)
s = 191: (0, 42, 34, 72, 36, 55, 37, 11, 75, 163, 11, 0)
s = 192: (0, 35, 25, 155, 43, 38, 105, 23, 69, 55, 13, 0)
s = 193: (0, 36, 30, 115, 21, 45, 104, 19, 64, 110, 14, 0)
s = 194: (0, 74, 41, 84, 26, 44, 64, 33, 60, 80, 29, 0)
s = 195: (0, 32, 44, 81, 15, 45, 99, 20, 77, 86, 17, 0)
s = 196: (0, 50, 38, 97, 34, 54, 77, 19, 70, 62, 19, 0)
s = 197: (0, 31, 54, 90, 20, 45, 73, 21, 94, 71, 12, 0)
s = 198: (0, 62, 34, 87, 21, 61, 82, 17, 120, 89, 23, 0)
s = 199: (0, 51, 32, 114, 36, 51, 74, 13, 53, 96, 10, 0)
s = 200: (0, 49, 23, 75, 24, 31, 63, 20, 113, 73, 22, 0)
------------------------------------------------------------------------
RESOURCE k = 2
s = 1: (0, 0, 34, 19, 0, 0, 0, 0, 0, 30, 0, 0)
s = 2: (0, 0, 33, 37, 0, 0, 0, 0, 0, 62, 0, 0)
s = 3: (0, 0, 34, 35, 0, 0, 0, 0, 0, 45, 0, 0)
s = 4: (0, 0, 61, 18, 0, 0, 0, 0, 0, 51, 0, 0)
s = 5: (0, 0, 42, 37, 0, 0, 0, 0, 0, 28, 0, 0)
s = 6: (0, 0, 30, 40, 0, 0, 0, 0, 0, 50, 0, 0)
s = 7: (0, 0, 40, 22, 0, 0, 0, 0, 0, 37, 0, 0)
s = 8: (0, 0, 47, 32, 0, 0, 0, 0, 0, 61, 0, 0)
s = 9: (0, 0, 47, 30, 0, 0, 0, 0, 0, 34, 0, 0)
s = 10: (0, 0, 28, 33, 0, 0, 0, 0, 0, 28, 0, 0)
s = 11: (0, 0, 47, 19, 0, 0, 0, 0, 0, 32, 0, 0)
s = 12: (0, 0, 52, 18, 0, 0, 0, 0, 0, 57, 0, 0)
s = 13: (0, 0, 41, 31, 0, 0, 0, 0, 0, 35, 0, 0)
s = 14: (0, 0, 63, 19, 0, 0, 0, 0, 0, 55, 0, 0)
s = 15: (0, 0, 51, 25, 0, 0, 0, 0, 0, 42, 0, 0)
s = 16: (0, 0, 37, 19, 0, 0, 0, 0, 0, 44, 0, 0)
s = 17: (0, 0, 31, 24, 0, 0, 0, 0, 0, 65, 0, 0)
s = 18: (0, 0, 32, 21, 0, 0, 0, 0, 0, 44, 0, 0)
s = 19: (0, 0, 42, 25, 0, 0, 0, 0, 0, 38, 0, 0)
s = 20: (0, 0, 42, 35, 0, 0, 0, 0, 0, 24, 0, 0)
s = 21: (0, 0, 57, 27, 0, 0, 0, 0, 0, 44, 0, 0)
s = 22: (0, 0, 32, 23, 0, 0, 0, 0, 0, 32, 0, 0)
s = 23: (0, 0, 50, 23, 0, 0, 0, 0, 0, 41, 0, 0)
s = 24: (0, 0, 24, 25, 0, 0, 0, 0, 0, 34, 0, 0)
s = 25: (0, 0, 46, 25, 0, 0, 0, 0, 0, 40, 0, 0)
s = 26: (0, 0, 37, 28, 0, 0, 0, 0, 0, 47, 0, 0)
s = 27: (0, 0, 36, 26, 0, 0, 0, 0, 0, 25, 0, 0)
s = 28: (0, 0, 45, 24, 0, 0, 0, 0, 0, 39, 0, 0)
s = 29: (0, 0, 33, 24, 0, 0, 0, 0, 0, 37, 0, 0)
s = 30: (0, 0, 71, 27, 0, 0, 0, 0, 0, 43, 0, 0)
s = 31: (0, 0, 39, 37, 0, 0, 0, 0, 0, 54, 0, 0)
s = 32: (0, 0, 27, 27, 0, 0, 0, 0, 0, 30, 0, 0)
s = 33: (0, 0, 27, 30, 0, 0, 0, 0, 0, 74, 0, 0)
s = 34: (0, 0, 48, 28, 0, 0, 0, 0, 0, 35, 0, 0)
s = 35: (0, 0, 61, 18, 0, 0, 0, 0, 0, 55, 0, 0)
s = 36: (0, 0, 33, 26, 0, 0, 0, 0, 0, 38, 0, 0)
s = 37: (0, 0, 48, 30, 0, 0, 0, 0, 0, 37, 0, 0)
s = 38: (0, 0, 31, 33, 0, 0, 0, 0, 0, 52, 0, 0)
s = 39: (0, 0, 28, 19, 0, 0, 0, 0, 0, 48, 0, 0)
s = 40: (0, 0, 38, 21, 0, 0, 0, 0, 0, 34, 0, 0)
s = 41: (0, 0, 44, 22, 0, 0, 0, 0, 0, 45, 0, 0)
s = 42: (0, 0, 66, 13, 0, 0, 0, 0, 0, 52, 0, 0)
s = 43: (0, 0, 42, 18, 0, 0, 0, 0, 0, 31, 0, 0)
s = 44: (0, 0, 50, 18, 0, 0, 0, 0, 0, 52, 0, 0)
s = 45: (0, 0, 38, 30, 0, 0, 0, 0, 0, 47, 0, 0)
s = 46: (0, 0, 48, 27, 0, 0, 0, 0, 0, 43, 0, 0)
s = 47: (0, 0, 27, 38, 0, 0, 0, 0, 0, 47, 0, 0)
s = 48: (0, 0, 37, 25, 0, 0, 0, 0, 0, 27, 0, 0)
s = 49: (0, 0, 34, 20, 0, 0, 0, 0, 0, 66, 0, 0)
s = 50: (0, 0, 25, 23, 0, 0, 0, 0, 0, 52, 0, 0)
s = 51: (0, 0, 54, 36, 0, 0, 0, 0, 0, 72, 0, 0)
s = 52: (0, 0, 24, 20, 0, 0, 0, 0, 0, 36, 0, 0)
s = 53: (0, 0, 41, 23, 0, 0, 0, 0, 0, 56, 0, 0)
s = 54: (0, 0, 36, 25, 0, 0, 0, 0, 0, 30, 0, 0)
s = 55: (0, 0, 54, 23, 0, 0, 0, 0, 0, 27, 0, 0)
s = 56: (0, 0, 48, 29, 0, 0, 0, 0, 0, 28, 0, 0)
s = 57: (0, 0, 42, 17, 0, 0, 0, 0, 0, 40, 0, 0)
s = 58: (0, 0, 67, 24, 0, 0, 0, 0, 0, 39, 0, 0)
s = 59: (0, 0, 34, 19, 0, 0, 0, 0, 0, 27, 0, 0)
s = 60: (0, 0, 31, 14, 0, 0, 0, 0, 0, 73, 0, 0)
s = 61: (0, 0, 49, 24, 0, 0, 0, 0, 0, 27, 0, 0)
s = 62: (0, 0, 40, 16, 0, 0, 0, 0, 0, 34, 0, 0)
s = 63: (0, 0, 52, 31, 0, 0, 0, 0, 0, 56, 0, 0)
s = 64: (0, 0, 35, 20, 0, 0, 0, 0, 0, 48, 0, 0)
s = 65: (0, 0, 38, 24, 0, 0, 0, 0, 0, 44, 0, 0)
s = 66: (0, 0, 47, 19, 0, 0, 0, 0, 0, 37, 0, 0)
s = 67: (0, 0, 57, 21, 0, 0, 0, 0, 0, 42, 0, 0)
s = 68: (0, 0, 40, 18, 0, 0, 0, 0, 0, 51, 0, 0)
s = 69: (0, 0, 46, 23, 0, 0, 0, 0, 0, 37, 0, 0)
s = 70: (0, 0, 27, 22, 0, 0, 0, 0, 0, 49, 0, 0)
s = 71: (0, 0, 34, 20, 0, 0, 0, 0, 0, 38, 0, 0)
s = 72: (0, 0, 39, 38, 0, 0, 0, 0, 0, 33, 0, 0)
s = 73: (0, 0, 38, 34, 0, 0, 0, 0, 0, 42, 0, 0)
s = 74: (0, 0, 29, 17, 0, 0, 0, 0, 0, 45, 0, 0)
s = 75: (0, 0, 39, 15, 0, 0, 0, 0, 0, 38, 0, 0)
s = 76: (0, 0, 40, 17, 0, 0, 0, 0, 0, 36, 0, 0)
s = 77: (0, 0, 33, 29, 0, 0, 0, 0, 0, 32, 0, 0)
s = 78: (0, 0, 37, 16, 0, 0, 0, 0, 0, 51, 0, 0)
s = 79: (0, 0, 35, 31, 0, 0, 0, 0, 0, 68, 0, 0)
s = 80: (0, 0, 39, 25, 0, 0, 0, 0, 0, 48, 0, 0)
s = 81: (0, 0, 49, 18, 0, 0, 0, 0, 0, 39, 0, 0)
s = 82: (0, 0, 52, 18, 0, 0, 0, 0, 0, 30, 0, 0)
s = 83: (0, 0, 54, 25, 0, 0, 0, 0, 0, 26, 0, 0)
s = 84: (0, 0, 45, 23, 0, 0, 0, 0, 0, 26, 0, 0)
s = 85: (0, 0, 40, 32, 0, 0, 0, 0, 0, 41, 0, 0)
s = 86: (0, 0, 27, 28, 0, 0, 0, 0, 0, 27, 0, 0)
s = 87: (0, 0, 42, 28, 0, 0, 0, 0, 0, 37, 0, 0)
s = 88: (0, 0, 32, 21, 0, 0, 0, 0, 0, 30, 0, 0)
s = 89: (0, 0, 49, 21, 0, 0, 0, 0, 0, 36, 0, 0)
s = 90: (0, 0, 35, 24, 0, 0, 0, 0, 0, 47, 0, 0)
s = 91: (0, 0, 57, 14, 0, 0, 0, 0, 0, 46, 0, 0)
s = 92: (0, 0, 43, 29, 0, 0, 0, 0, 0, 43, 0, 0)
s = 93: (0, 0, 62, 37, 0, 0, 0, 0, 0, 37, 0, 0)
s = 94: (0, 0, 38, 27, 0, 0, 0, 0, 0, 34, 0, 0)
s = 95: (0, 0, 48, 22, 0, 0, 0, 0, 0, 44, 0, 0)
s = 96: (0, 0, 30, 39, 0, 0, 0, 0, 0, 53, 0, 0)
s = 97: (0, 0, 65, 38, 0, 0, 0, 0, 0, 26, 0, 0)
s = 98: (0, 0, 51, 16, 0, 0, 0, 0, 0, 57, 0, 0)
s = 99: (0, 0, 48, 24, 0, 0, 0, 0, 0, 44, 0, 0)
s = 100: (0, 0, 29, 19, 0, 0, 0, 0, 0, 32, 0, 0)
s = 101: (0, 0, 49, 21, 0, 0, 0, 0, 0, 53, 0, 0)
s = 102: (0, 0, 38, 34, 0, 0, 0, 0, 0, 32, 0, 0)
s = 103: (0, 0, 29, 32, 0, 0, 0, 0, 0, 33, 0, 0)
s = 104: (0, 0, 39, 20, 0, 0, 0, 0, 0, 33, 0, 0)
s = 105: (0, 0, 36, 18, 0, 0, 0, 0, 0, 40, 0, 0)
s = 106: (0, 0, 26, 28, 0, 0, 0, 0, 0, 49, 0, 0)
s = 107: (0, 0, 37, 20, 0, 0, 0, 0, 0, 41, 0, 0)
s = 108: (0, 0, 31, 15, 0, 0, 0, 0, 0, 37, 0, 0)
s = 109: (0, 0, 42, 29, 0, 0, 0, 0, 0, 84, 0, 0)
s = 110: (0, 0, 34, 25, 0, 0, 0, 0, 0, 50, 0, 0)
s = 111: (0, 0, 45, 14, 0, 0, 0, 0, 0, 34, 0, 0)
s = 112: (0, 0, 29, 35, 0, 0, 0, 0, 0, 52, 0, 0)
s = 113: (0, 0, 38, 14, 0, 0, 0, 0, 0, 43, 0, 0)
s = 114: (0, 0, 33, 23, 0, 0, 0, 0, 0, 23, 0, 0)
s = 115: (0, 0, 39, 26, 0, 0, 0, 0, 0, 32, 0, 0)
s = 116: (0, 0, 45, 19, 0, 0, 0, 0, 0, 57, 0, 0)
s = 117: (0, 0, 34, 27, 0, 0, 0, 0, 0, 55, 0, 0)
s = 118: (0, 0, 40, 18, 0, 0, 0, 0, 0, 46, 0, 0)
s = 119: (0, 0, 24, 18, 0, 0, 0, 0, 0, 37, 0, 0)
s = 120: (0, 0, 36, 16, 0, 0, 0, 0, 0, 51, 0, 0)
s = 121: (0, 0, 36, 22, 0, 0, 0, 0, 0, 41, 0, 0)
s = 122: (0, 0, 42, 26, 0, 0, 0, 0, 0, 40, 0, 0)
s = 123: (0, 0, 40, 16, 0, 0, 0, 0, 0, 46, 0, 0)
s = 124: (0, 0, 38, 29, 0, 0, 0, 0, 0, 36, 0, 0)
s = 125: (0, 0, 26, 22, 0, 0, 0, 0, 0, 62, 0, 0)
s = 126: (0, 0, 35, 23, 0, 0, 0, 0, 0, 44, 0, 0)
s = 127: (0, 0, 36, 23, 0, 0, 0, 0, 0, 73, 0, 0)
s = 128: (0, 0, 56, 33, 0, 0, 0, 0, 0, 45, 0, 0)
s = 129: (0, 0, 36, 27, 0, 0, 0, 0, 0, 33, 0, 0)
s = 130: (0, 0, 40, 23, 0, 0, 0, 0, 0, 35, 0, 0)
s = 131: (0, 0, 46, 30, 0, 0, 0, 0, 0, 41, 0, 0)
s = 132: (0, 0, 48, 22, 0, 0, 0, 0, 0, 70, 0, 0)
s = 133: (0, 0, 25, 20, 0, 0, 0, 0, 0, 47, 0, 0)
s = 134: (0, 0, 44, 43, 0, 0, 0, 0, 0, 53, 0, 0)
s = 135: (0, 0, 38, 19, 0, 0, 0, 0, 0, 49, 0, 0)
s = 136: (0, 0, 21, 31, 0, 0, 0, 0, 0, 26, 0, 0)
s = 137: (0, 0, 43, 25, 0, 0, 0, 0, 0, 32, 0, 0)
s = 138: (0, 0, 32, 17, 0, 0, 0, 0, 0, 29, 0, 0)
s = 139: (0, 0, 42, 20, 0, 0, 0, 0, 0, 25, 0, 0)
s = 140: (0, 0, 45, 20, 0, 0, 0, 0, 0, 53, 0, 0)
s = 141: (0, 0, 55, 28, 0, 0, 0, 0, 0, 27, 0, 0)
s = 142: (0, 0, 35, 27, 0, 0, 0, 0, 0, 25, 0, 0)
s = 143: (0, 0, 40, 37, 0, 0, 0, 0, 0, 44, 0, 0)
s = 144: (0, 0, 30, 18, 0, 0, 0, 0, 0, 27, 0, 0)
s = 145: (0, 0, 55, 33, 0, 0, 0, 0, 0, 33, 0, 0)
s = 146: (0, 0, 47, 28, 0, 0, 0, 0, 0, 42, 0, 0)
s = 147: (0, 0, 33, 21, 0, 0, 0, 0, 0, 32, 0, 0)
s = 148: (0, 0, 38, 25, 0, 0, 0, 0, 0, 34, 0, 0)
s = 149: (0, 0, 35, 17, 0, 0, 0, 0, 0, 49, 0, 0)
s = 150: (0, 0, 52, 17, 0, 0, 0, 0, 0, 47, 0, 0)
s = 151: (0, 0, 29, 15, 0, 0, 0, 0, 0, 38, 0, 0)
s = 152: (0, 0, 49, 31, 0, 0, 0, 0, 0, 43, 0, 0)
s = 153: (0, 0, 30, 20, 0, 0, 0, 0, 0, 61, 0, 0)
s = 154: (0, 0, 38, 27, 0, 0, 0, 0, 0, 51, 0, 0)
s = 155: (0, 0, 66, 38, 0, 0, 0, 0, 0, 52, 0, 0)
s = 156: (0, 0, 53, 17, 0, 0, 0, 0, 0, 65, 0, 0)
s = 157: (0, 0, 65, 16, 0, 0, 0, 0, 0, 62, 0, 0)
s = 158: (0, 0, 36, 36, 0, 0, 0, 0, 0, 35, 0, 0)
s = 159: (0, 0, 54, 20, 0, 0, 0, 0, 0, 51, 0, 0)
s = 160: (0, 0, 33, 19, 0, 0, 0, 0, 0, 32, 0, 0)
s = 161: (0, 0, 33, 27, 0, 0, 0, 0, 0, 57, 0, 0)
s = 162: (0, 0, 27, 24, 0, 0, 0, 0, 0, 54, 0, 0)
s = 163: (0, 0, 29, 25, 0, 0, 0, 0, 0, 68, 0, 0)
s = 164: (0, 0, 29, 17, 0, 0, 0, 0, 0, 49, 0, 0)
s = 165: (0, 0, 40, 26, 0, 0, 0, 0, 0, 42, 0, 0)
s = 166: (0, 0, 46, 35, 0, 0, 0, 0, 0, 41, 0, 0)
s = 167: (0, 0, 25, 22, 0, 0, 0, 0, 0, 56, 0, 0)
s = 168: (0, 0, 41, 17, 0, 0, 0, 0, 0, 45, 0, 0)
s = 169: (0, 0, 31, 42, 0, 0, 0, 0, 0, 58, 0, 0)
s = 170: (0, 0, 48, 24, 0, 0, 0, 0, 0, 36, 0, 0)
s = 171: (0, 0, 24, 21, 0, 0, 0, 0, 0, 35, 0, 0)
s = 172: (0, 0, 44, 21, 0, 0, 0, 0, 0, 32, 0, 0)
s = 173: (0, 0, 43, 23, 0, 0, 0, 0, 0, 53, 0, 0)
s = 174: (0, 0, 62, 21, 0, 0, 0, 0, 0, 57, 0, 0)
s = 175: (0, 0, 54, 25, 0, 0, 0, 0, 0, 28, 0, 0)
s = 176: (0, 0, 30, 32, 0, 0, 0, 0, 0, 24, 0, 0)
s = 177: (0, 0, 37, 16, 0, 0, 0, 0, 0, 36, 0, 0)
s = 178: (0, 0, 35, 23, 0, 0, 0, 0, 0, 31, 0, 0)
s = 179: (0, 0, 45, 28, 0, 0, 0, 0, 0, 39, 0, 0)
s = 180: (0, 0, 51, 27, 0, 0, 0, 0, 0, 33, 0, 0)
s = 181: (0, 0, 22, 16, 0, 0, 0, 0, 0, 49, 0, 0)
s = 182: (0, 0, 23, 33, 0, 0, 0, 0, 0, 42, 0, 0)
s = 183: (0, 0, 38, 21, 0, 0, 0, 0, 0, 45, 0, 0)
s = 184: (0, 0, 26, 27, 0, 0, 0, 0, 0, 30, 0, 0)
s = 185: (0, 0, 22, 16, 0, 0, 0, 0, 0, 46, 0, 0)
s = 186: (0, 0, 29, 26, 0, 0, 0, 0, 0, 26, 0, 0)
s = 187: (0, 0, 32, 19, 0, 0, 0, 0, 0, 34, 0, 0)
s = 188: (0, 0, 34, 41, 0, 0, 0, 0, 0, 39, 0, 0)
s = 189: (0, 0, 30, 38, 0, 0, 0, 0, 0, 48, 0, 0)
s = 190: (0, 0, 24, 37, 0, 0, 0, 0, 0, 37, 0, 0)
s = 191: (0, 0, 43, 16, 0, 0, 0, 0, 0, 67, 0, 0)
s = 192: (0, 0, 31, 35, 0, 0, 0, 0, 0, 23, 0, 0)
s = 193: (0, 0, 38, 26, 0, 0, 0, 0, 0, 46, 0, 0)
s = 194: (0, 0, 51, 19, 0, 0, 0, 0, 0, 33, 0, 0)
s = 195: (0, 0, 55, 18, 0, 0, 0, 0, 0, 36, 0, 0)
s = 196: (0, 0, 47, 22, 0, 0, 0, 0, 0, 26, 0, 0)
s = 197: (0, 0, 68, 20, 0, 0, 0, 0, 0, 30, 0, 0)
s = 198: (0, 0, 42, 20, 0, 0, 0, 0, 0, 37, 0, 0)
s = 199: (0, 0, 40, 26, 0, 0, 0, 0, 0, 40, 0, 0)
s = 200: (0, 0, 29, 17, 0, 0, 0, 0, 0, 30, 0, 0)
------------------------------------------------------------------------
RESOURCE k = 3
s = 1: (0, 23, 0, 0, 12, 13, 26, 9, 9, 0, 16, 0)
s = 2: (0, 17, 0, 0, 15, 20, 20, 7, 16, 0, 18, 0)
s = 3: (0, 18, 0, 0, 13, 15, 28, 12, 14, 0, 20, 0)
s = 4: (0, 10, 0, 0, 8, 23, 35, 14, 16, 0, 14, 0)
s = 5: (0, 15, 0, 0, 8, 19, 28, 9, 15, 0, 20, 0)
s = 6: (0, 21, 0, 0, 12, 17, 27, 12, 12, 0, 16, 0)
s = 7: (0, 27, 0, 0, 20, 17, 28, 8, 10, 0, 22, 0)
s = 8: (0, 15, 0, 0, 11, 20, 19, 9, 10, 0, 18, 0)
s = 9: (0, 21, 0, 0, 9, 15, 38, 15, 20, 0, 24, 0)
s = 10: (0, 18, 0, 0, 16, 17, 21, 8, 23, 0, 17, 0)
s = 11: (0, 16, 0, 0, 17, 30, 24, 11, 14, 0, 16, 0)
s = 12: (0, 19, 0, 0, 16, 15, 29, 6, 12, 0, 11, 0)
s = 13: (0, 9, 0, 0, 22, 22, 29, 13, 21, 0, 17, 0)
s = 14: (0, 20, 0, 0, 15, 19, 28, 10, 16, 0, 17, 0)
s = 15: (0, 15, 0, 0, 9, 12, 39, 10, 15, 0, 15, 0)
s = 16: (0, 13, 0, 0, 18, 20, 26, 7, 12, 0, 24, 0)
s = 17: (0, 13, 0, 0, 12, 21, 32, 14, 11, 0, 18, 0)
s = 18: (0, 10, 0, 0, 8, 22, 33, 7, 23, 0, 12, 0)
s = 19: (0, 16, 0, 0, 8, 23, 24, 13, 10, 0, 15, 0)
s = 20: (0, 22, 0, 0, 11, 11, 23, 6, 18, 0, 16, 0)
s = 21: (0, 10, 0, 0, 12, 25, 34, 11, 25, 0, 17, 0)
s = 22: (0, 11, 0, 0, 13, 14, 25, 7, 11, 0, 21, 0)
s = 23: (0, 14, 0, 0, 16, 18, 36, 11, 11, 0, 12, 0)
s = 24: (0, 12, 0, 0, 12, 21, 27, 15, 19, 0, 10, 0)
s = 25: (0, 18, 0, 0, 14, 20, 55, 12, 15, 0, 12, 0)
s = 26: (0, 23, 0, 0, 8, 29, 23, 9, 12, 0, 19, 0)
s = 27: (0, 21, 0, 0, 7, 28, 26, 8, 12, 0, 10, 0)
s = 28: (0, 11, 0, 0, 15, 13, 32, 13, 20, 0, 16, 0)
s = 29: (0, 12, 0, 0, 11, 16, 35, 17, 16, 0, 14, 0)
s = 30: (0, 16, 0, 0, 14, 16, 34, 10, 12, 0, 21, 0)
s = 31: (0, 15, 0, 0, 11, 21, 23, 15, 16, 0, 16, 0)
s = 32: (0, 10, 0, 0, 7, 19, 44, 10, 18, 0, 14, 0)
s = 33: (0, 15, 0, 0, 13, 18, 28, 13, 20, 0, 23, 0)
s = 34: (0, 13, 0, 0, 12, 25, 32, 6, 23, 0, 22, 0)
s = 35: (0, 21, 0, 0, 8, 11, 32, 9, 21, 0, 22, 0)
s = 36: (0, 11, 0, 0, 7, 24, 41, 7, 10, 0, 22, 0)
s = 37: (0, 20, 0, 0, 17, 14, 31, 13, 18, 0, 25, 0)
s = 38: (0, 11, 0, 0, 15, 30, 29, 9, 18, 0, 17, 0)
s = 39: (0, 12, 0, 0, 14, 12, 28, 16, 11, 0, 18, 0)
s = 40: (0, 14, 0, 0, 11, 15, 47, 8, 12, 0, 13, 0)
s = 41: (0, 14, 0, 0, 9, 24, 34, 7, 11, 0, 12, 0)
s = 42: (0, 16, 0, 0, 15, 17, 48, 16, 14, 0, 13, 0)
s = 43: (0, 19, 0, 0, 8, 14, 20, 7, 18, 0, 23, 0)
s = 44: (0, 11, 0, 0, 14, 14, 25, 9, 15, 0, 16, 0)
s = 45: (0, 13, 0, 0, 13, 20, 23, 9, 18, 0, 12, 0)
s = 46: (0, 19, 0, 0, 17, 31, 43, 12, 16, 0, 21, 0)
s = 47: (0, 15, 0, 0, 15, 15, 39, 12, 17, 0, 14, 0)
s = 48: (0, 15, 0, 0, 9, 28, 31, 11, 11, 0, 15, 0)
s = 49: (0, 19, 0, 0, 14, 15, 26, 16, 10, 0, 26, 0)
s = 50: (0, 25, 0, 0, 12, 21, 37, 12, 19, 0, 15, 0)
s = 51: (0, 13, 0, 0, 18, 21, 25, 9, 10, 0, 12, 0)
s = 52: (0, 18, 0, 0, 9, 19, 38, 16, 14, 0, 13, 0)
s = 53: (0, 11, 0, 0, 14, 23, 27, 11, 11, 0, 11, 0)
s = 54: (0, 20, 0, 0, 21, 16, 21, 17, 21, 0, 15, 0)
s = 55: (0, 10, 0, 0, 10, 15, 28, 10, 15, 0, 14, 0)
s = 56: (0, 11, 0, 0, 9, 22, 29, 11, 17, 0, 20, 0)
s = 57: (0, 19, 0, 0, 12, 16, 39, 16, 16, 0, 14, 0)
s = 58: (0, 19, 0, 0, 10, 20, 32, 9, 13, 0, 12, 0)
s = 59: (0, 23, 0, 0, 18, 13, 21, 12, 23, 0, 11, 0)
s = 60: (0, 10, 0, 0, 9, 27, 20, 10, 12, 0, 14, 0)
s = 61: (0, 17, 0, 0, 9, 11, 37, 10, 15, 0, 17, 0)
s = 62: (0, 12, 0, 0, 16, 23, 35, 11, 9, 0, 18, 0)
s = 63: (0, 13, 0, 0, 11, 22, 48, 16, 21, 0, 15, 0)
s = 64: (0, 15, 0, 0, 7, 27, 25, 12, 21, 0, 17, 0)
s = 65: (0, 11, 0, 0, 11, 26, 39, 6, 10, 0, 10, 0)
s = 66: (0, 25, 0, 0, 11, 25, 34, 10, 15, 0, 22, 0)
s = 67: (0, 18, 0, 0, 13, 13, 42, 8, 12, 0, 12, 0)
s = 68: (0, 20, 0, 0, 14, 14, 38, 6, 19, 0, 18, 0)
s = 69: (0, 15, 0, 0, 13, 23, 29, 6, 17, 0, 21, 0)
s = 70: (0, 16, 0, 0, 9, 17, 43, 9, 17, 0, 15, 0)
s = 71: (0, 17, 0, 0, 10, 31, 23, 13, 14, 0, 14, 0)
s = 72: (0, 11, 0, 0, 13, 15, 29, 10, 14, 0, 15, 0)
s = 73: (0, 12, 0, 0, 8, 17, 30, 10, 12, 0, 12, 0)
s = 74: (0, 17, 0, 0, 18, 16, 30, 6, 12, 0, 11, 0)
s = 75: (0, 18, 0, 0, 11, 16, 27, 10, 12, 0, 14, 0)
s = 76: (0, 11, 0, 0, 17, 17, 38, 11, 14, 0, 19, 0)
s = 77: (0, 19, 0, 0, 12, 17, 41, 8, 10, 0, 24, 0)
s = 78: (0, 11, 0, 0, 18, 29, 35, 13, 15, 0, 11, 0)
s = 79: (0, 11, 0, 0, 20, 19, 23, 17, 16, 0, 18, 0)
s = 80: (0, 15, 0, 0, 16, 23, 37, 7, 19, 0, 18, 0)
s = 81: (0, 17, 0, 0, 10, 16, 35, 12, 18, 0, 21, 0)
s = 82: (0, 25, 0, 0, 9, 16, 24, 7, 24, 0, 12, 0)
s = 83: (0, 11, 0, 0, 9, 15, 25, 10, 18, 0, 13, 0)
s = 84: (0, 14, 0, 0, 11, 29, 36, 9, 12, 0, 17, 0)
s = 85: (0, 18, 0, 0, 14, 17, 24, 13, 18, 0, 10, 0)
s = 86: (0, 13, 0, 0, 15, 15, 32, 12, 20, 0, 23, 0)
s = 87: (0, 16, 0, 0, 12, 14, 35, 14, 9, 0, 11, 0)
s = 88: (0, 12, 0, 0, 9, 17, 29, 13, 15, 0, 21, 0)
s = 89: (0, 16, 0, 0, 13, 18, 28, 13, 23, 0, 11, 0)
s = 90: (0, 18, 0, 0, 21, 20, 30, 9, 10, 0, 18, 0)
s = 91: (0, 9, 0, 0, 15, 13, 34, 12, 12, 0, 20, 0)
s = 92: (0, 15, 0, 0, 7, 12, 47, 8, 16, 0, 16, 0)
s = 93: (0, 12, 0, 0, 15, 13, 24, 10, 13, 0, 13, 0)
s = 94: (0, 22, 0, 0, 10, 12, 27, 13, 19, 0, 16, 0)
s = 95: (0, 22, 0, 0, 9, 22, 33, 11, 12, 0, 15, 0)
s = 96: (0, 18, 0, 0, 14, 14, 52, 11, 20, 0, 20, 0)
s = 97: (0, 21, 0, 0, 12, 13, 52, 17, 17, 0, 15, 0)
s = 98: (0, 27, 0, 0, 8, 27, 40, 12, 18, 0, 11, 0)
s = 99: (0, 15, 0, 0, 10, 30, 19, 8, 10, 0, 16, 0)
s = 100: (0, 18, 0, 0, 13, 15, 36, 10, 16, 0, 25, 0)
s = 101: (0, 10, 0, 0, 11, 11, 19, 12, 21, 0, 13, 0)
s = 102: (0, 21, 0, 0, 11, 21, 32, 7, 21, 0, 22, 0)
s = 103: (0, 18, 0, 0, 16, 18, 23, 12, 16, 0, 22, 0)
s = 104: (0, 20, 0, 0, 11, 20, 40, 9, 20, 0, 13, 0)
s = 105: (0, 22, 0, 0, 21, 14, 35, 14, 14, 0, 17, 0)
s = 106: (0, 18, 0, 0, 11, 19, 29, 14, 14, 0, 15, 0)
s = 107: (0, 12, 0, 0, 10, 13, 19, 7, 9, 0, 25, 0)
s = 108: (0, 15, 0, 0, 11, 20, 41, 15, 24, 0, 12, 0)
s = 109: (0, 22, 0, 0, 13, 23, 27, 17, 9, 0, 23, 0)
s = 110: (0, 20, 0, 0, 19, 19, 20, 14, 10, 0, 18, 0)
s = 111: (0, 10, 0, 0, 9, 13, 25, 11, 21, 0, 11, 0)
s = 112: (0, 15, 0, 0, 15, 28, 19, 17, 15, 0, 16, 0)
s = 113: (0, 15, 0, 0, 14, 24, 29, 8, 16, 0, 19, 0)
s = 114: (0, 21, 0, 0, 8, 16, 39, 7, 10, 0, 18, 0)
s = 115: (0, 14, 0, 0, 8, 18, 31, 8, 19, 0, 17, 0)
s = 116: (0, 15, 0, 0, 9, 13, 24, 8, 11, 0, 19, 0)
s = 117: (0, 15, 0, 0, 10, 12, 19, 13, 15, 0, 15, 0)
s = 118: (0, 13, 0, 0, 11, 23, 34, 9, 9, 0, 11, 0)
s = 119: (0, 14, 0, 0, 13, 19, 48, 13, 10, 0, 23, 0)
s = 120: (0, 17, 0, 0, 12, 26, 42, 17, 14, 0, 16, 0)
s = 121: (0, 21, 0, 0, 8, 27, 46, 9, 19, 0, 16, 0)
s = 122: (0, 24, 0, 0, 10, 25, 38, 15, 13, 0, 21, 0)
s = 123: (0, 11, 0, 0, 12, 20, 46, 11, 14, 0, 20, 0)
s = 124: (0, 19, 0, 0, 16, 24, 37, 11, 11, 0, 12, 0)
s = 125: (0, 14, 0, 0, 10, 21, 19, 10, 23, 0, 12, 0)
s = 126: (0, 9, 0, 0, 10, 16, 43, 9, 11, 0, 11, 0)
s = 127: (0, 14, 0, 0, 11, 15, 23, 13, 12, 0, 24, 0)
s = 128: (0, 16, 0, 0, 14, 16, 27, 11, 12, 0, 12, 0)
s = 129: (0, 17, 0, 0, 14, 24, 48, 8, 17, 0, 13, 0)
s = 130: (0, 21, 0, 0, 11, 27, 55, 12, 13, 0, 15, 0)
s = 131: (0, 10, 0, 0, 14, 17, 30, 8, 13, 0, 12, 0)
s = 132: (0, 17, 0, 0, 12, 16, 32, 8, 13, 0, 18, 0)
s = 133: (0, 14, 0, 0, 9, 27, 39, 11, 12, 0, 11, 0)
s = 134: (0, 11, 0, 0, 7, 14, 57, 9, 25, 0, 15, 0)
s = 135: (0, 15, 0, 0, 9, 19, 24, 8, 13, 0, 16, 0)
s = 136: (0, 12, 0, 0, 17, 13, 30, 17, 10, 0, 16, 0)
s = 137: (0, 20, 0, 0, 8, 11, 28, 11, 19, 0, 13, 0)
s = 138: (0, 17, 0, 0, 16, 16, 38, 13, 11, 0, 12, 0)
s = 139: (0, 15, 0, 0, 11, 21, 32, 12, 23, 0, 12, 0)
s = 140: (0, 16, 0, 0, 13, 18, 33, 11, 21, 0, 18, 0)
s = 141: (0, 19, 0, 0, 10, 16, 35, 15, 9, 0, 22, 0)
s = 142: (0, 20, 0, 0, 13, 11, 37, 8, 21, 0, 17, 0)
s = 143: (0, 15, 0, 0, 12, 15, 45, 17, 18, 0, 27, 0)
s = 144: (0, 16, 0, 0, 14, 13, 23, 13, 28, 0, 16, 0)
s = 145: (0, 17, 0, 0, 8, 20, 37, 9, 19, 0, 15, 0)
s = 146: (0, 13, 0, 0, 7, 21, 31, 12, 12, 0, 12, 0)
s = 147: (0, 18, 0, 0, 9, 18, 30, 8, 8, 0, 21, 0)
s = 148: (0, 11, 0, 0, 16, 18, 23, 10, 11, 0, 12, 0)
s = 149: (0, 16, 0, 0, 8, 17, 21, 8, 14, 0, 21, 0)
s = 150: (0, 10, 0, 0, 12, 20, 29, 15, 10, 0, 14, 0)
s = 151: (0, 14, 0, 0, 18, 18, 26, 10, 13, 0, 24, 0)
s = 152: (0, 19, 0, 0, 19, 13, 58, 8, 19, 0, 18, 0)
s = 153: (0, 20, 0, 0, 13, 14, 30, 10, 14, 0, 17, 0)
s = 154: (0, 16, 0, 0, 11, 20, 38, 14, 13, 0, 22, 0)
s = 155: (0, 13, 0, 0, 15, 27, 22, 13, 16, 0, 18, 0)
s = 156: (0, 13, 0, 0, 15, 24, 19, 14, 15, 0, 19, 0)
s = 157: (0, 21, 0, 0, 8, 16, 22, 10, 12, 0, 10, 0)
s = 158: (0, 21, 0, 0, 18, 18, 25, 8, 21, 0, 18, 0)
s = 159: (0, 16, 0, 0, 13, 16, 28, 10, 21, 0, 15, 0)
s = 160: (0, 16, 0, 0, 19, 23, 28, 12, 18, 0, 16, 0)
s = 161: (0, 17, 0, 0, 15, 12, 25, 17, 12, 0, 17, 0)
s = 162: (0, 24, 0, 0, 12, 14, 23, 7, 19, 0, 13, 0)
s = 163: (0, 12, 0, 0, 8, 24, 46, 10, 10, 0, 26, 0)
s = 164: (0, 15, 0, 0, 13, 25, 27, 13, 12, 0, 18, 0)
s = 165: (0, 24, 0, 0, 14, 19, 49, 9, 21, 0, 23, 0)
s = 166: (0, 15, 0, 0, 11, 12, 47, 11, 13, 0, 20, 0)
s = 167: (0, 21, 0, 0, 11, 24, 32, 12, 25, 0, 11, 0)
s = 168: (0, 19, 0, 0, 8, 18, 42, 8, 15, 0, 18, 0)
s = 169: (0, 10, 0, 0, 12, 23, 32, 7, 22, 0, 12, 0)
s = 170: (0, 12, 0, 0, 16, 19, 29, 14, 11, 0, 19, 0)
s = 171: (0, 13, 0, 0, 8, 11, 38, 12, 17, 0, 17, 0)
s = 172: (0, 24, 0, 0, 11, 26, 39, 6, 15, 0, 15, 0)
s = 173: (0, 18, 0, 0, 10, 15, 43, 7, 20, 0, 24, 0)
s = 174: (0, 13, 0, 0, 13, 27, 37, 8, 11, 0, 25, 0)
s = 175: (0, 15, 0, 0, 15, 13, 18, 17, 13, 0, 17, 0)
s = 176: (0, 13, 0, 0, 15, 14, 32, 9, 15, 0, 23, 0)
s = 177: (0, 18, 0, 0, 9, 22, 23, 12, 10, 0, 11, 0)
s = 178: (0, 12, 0, 0, 14, 16, 25, 10, 11, 0, 27, 0)
s = 179: (0, 16, 0, 0, 17, 22, 60, 12, 19, 0, 13, 0)
s = 180: (0, 20, 0, 0, 13, 17, 24, 7, 20, 0, 12, 0)
s = 181: (0, 15, 0, 0, 12, 27, 38, 11, 12, 0, 19, 0)
s = 182: (0, 16, 0, 0, 9, 17, 39, 17, 16, 0, 14, 0)
s = 183: (0, 22, 0, 0, 8, 15, 51, 9, 13, 0, 19, 0)
s = 184: (0, 21, 0, 0, 13, 27, 27, 11, 15, 0, 11, 0)
s = 185: (0, 15, 0, 0, 20, 24, 26, 7, 15, 0, 13, 0)
s = 186: (0, 10, 0, 0, 13, 25, 18, 10, 18, 0, 22, 0)
s = 187: (0, 21, 0, 0, 13, 27, 28, 9, 15, 0, 13, 0)
s = 188: (0, 12, 0, 0, 15, 25, 36, 9, 16, 0, 19, 0)
s = 189: (0, 24, 0, 0, 12, 26, 29, 8, 15, 0, 26, 0)
s = 190: (0, 26, 0, 0, 12, 24, 47, 8, 15, 0, 14, 0)
s = 191: (0, 14, 0, 0, 18, 21, 18, 6, 15, 0, 10, 0)
s = 192: (0, 12, 0, 0, 22, 14, 49, 12, 14, 0, 12, 0)
s = 193: (0, 12, 0, 0, 11, 17, 49, 10, 13, 0, 12, 0)
s = 194: (0, 25, 0, 0, 13, 17, 31, 17, 12, 0, 26, 0)
s = 195: (0, 11, 0, 0, 8, 17, 47, 11, 16, 0, 15, 0)
s = 196: (0, 17, 0, 0, 17, 21, 37, 10, 14, 0, 17, 0)
s = 197: (0, 11, 0, 0, 10, 17, 35, 11, 19, 0, 11, 0)
s = 198: (0, 21, 0, 0, 11, 23, 39, 9, 24, 0, 21, 0)
s = 199: (0, 17, 0, 0, 18, 19, 35, 7, 11, 0, 9, 0)
s = 200: (0, 17, 0, 0, 12, 12, 30, 11, 23, 0, 20, 0)
************************************************************************
ES/LS-VALUES:
jobnr.   ES(i)    LS(i)
------------------------------------------------------------------------
  0        0        0
  1        0       59
  2        0       60
  3        0       57
  4        7       76
  5       10       68
  6        6       66
  7       10       80
  8       13       76
  9       15       74
 10       13       82
 11       27       86
************************************************************************
BIG-M-VALUES:
M1 = 59, M2 = 314
************************************************************************
